proyfinal/src/viki/013/experimentInOfficeAgust.take6.output/30b29195-09e4-42b6-a8df-ceeb3b772229.als.dat
{'cnf.clauses': '118081',
 'cnf.totvars': '69608',
 'conflict literals': '29',
 'conflicts': '10',
 'decisions': '2333',
 'memused.mb': '16.33',
 'outcome': 'UNSAT',
 'propagations': '20188',
 'restarts': '1',
 'solver.msecs': 35,
 'task.msecs': 124}
