proyfinal/src/viki/013/experimentInOfficeAgust.take6.output/30b29195-09e4-42b6-a8df-ceeb3b772229.als.out
Reading from standard input... Use '--help' for help.
============================[ Problem Statistics ]=============================
|                                                                             |
|  Number of variables:         69608                                         |
|  Number of clauses:          118081                                         |
|  Parse time:                   0.03 s                                       |
|                                                                             |
============================[ Search Statistics ]==============================
| Conflicts |          ORIGINAL         |          LEARNT          | Progress |
|           |    Vars  Clauses Literals |    Limit  Clauses Lit/Cl |          |
===============================================================================
===============================================================================
restarts              : 1
conflicts             : 10             (281 /sec)
decisions             : 2333           (0.00 % random) (65458 /sec)
propagations          : 20188          (566426 /sec)
conflict literals     : 29             (0.00 % deleted)
Memory used           : 16.33 MB
CPU time              : 0.035641 s

UNSATISFIABLE
